(set-logic QF_S)
(declare-fun var0 () String)
(assert (RegexIn var0 (RegexConcat (RegexStar (RegexStar (Str2Reg "00"))) (RegexConcat (RegexPlus (RegexUnion (Str2Reg "11") (Str2Reg "222"))) (RegexConcat (RegexPlus (RegexUnion (Str2Reg "3") (Str2Reg "4"))) (RegexConcat (RegexUnion (RegexUnion (Str2Reg "555") (Str2Reg "6")) (RegexUnion (Str2Reg "7") (Str2Reg "888"))) (RegexConcat (RegexStar (RegexPlus (Str2Reg "99"))) (RegexConcat (RegexPlus (RegexPlus (Str2Reg "aaa"))) (RegexConcat (RegexUnion (RegexStar (Str2Reg "bbb")) (RegexStar (Str2Reg "cc"))) (RegexConcat (RegexStar (RegexPlus (Str2Reg "dd"))) (RegexConcat (RegexUnion (RegexPlus (Str2Reg "e")) (RegexPlus (Str2Reg "ff"))) (RegexConcat (RegexUnion (RegexUnion (Str2Reg "g") (Str2Reg "hhh")) (RegexUnion (Str2Reg "i") (Str2Reg "jj"))) (RegexConcat (RegexPlus (RegexUnion (Str2Reg "k") (Str2Reg "l"))) (RegexConcat (RegexStar (RegexPlus (Str2Reg "mmm"))) (RegexConcat (RegexStar (RegexPlus (Str2Reg "nnn"))) (RegexConcat (RegexUnion (RegexUnion (Str2Reg "oo") (Str2Reg "p")) (RegexUnion (Str2Reg "q") (Str2Reg "r"))) (RegexConcat (RegexStar (RegexPlus (Str2Reg "sss"))) (RegexConcat (RegexPlus (RegexUnion (Str2Reg "ttt") (Str2Reg "uuu"))) (RegexConcat (RegexPlus (RegexUnion (Str2Reg "v") (Str2Reg "ww"))) (RegexConcat (RegexUnion (RegexPlus (Str2Reg "xx")) (RegexPlus (Str2Reg "yy"))) (RegexConcat (RegexUnion (RegexUnion (Str2Reg "z") (Str2Reg "AAA")) (RegexUnion (Str2Reg "BBB") (Str2Reg "CCC"))) (RegexConcat (RegexStar (RegexStar (Str2Reg "DD"))) (RegexConcat (RegexStar (RegexPlus (Str2Reg "EEE"))) (RegexConcat (RegexUnion (RegexPlus (Str2Reg "FFF")) (RegexPlus (Str2Reg "GG"))) (RegexConcat (RegexUnion (RegexPlus (Str2Reg "H")) (RegexPlus (Str2Reg "II"))) (RegexConcat (RegexPlus (RegexStar (Str2Reg "JJJ"))) (RegexConcat (RegexPlus (RegexUnion (Str2Reg "KK") (Str2Reg "L"))) (RegexConcat (RegexPlus (RegexPlus (Str2Reg "MM"))) (RegexConcat (RegexStar (RegexUnion (Str2Reg "NNN") (Str2Reg "OO"))) (RegexConcat (RegexStar (RegexUnion (Str2Reg "P") (Str2Reg "Q"))) (RegexConcat (RegexUnion (RegexStar (Str2Reg "R")) (RegexStar (Str2Reg "S"))) (RegexConcat (RegexPlus (RegexPlus (Str2Reg "T"))) (RegexConcat (RegexUnion (RegexStar (Str2Reg "UUU")) (RegexStar (Str2Reg "VV"))) (RegexConcat (RegexPlus (RegexUnion (Str2Reg "W") (Str2Reg "XXX"))) (RegexConcat (RegexStar (RegexUnion (Str2Reg "Y") (Str2Reg "ZZ"))) (RegexConcat (RegexPlus (RegexPlus (Str2Reg "!!"))) (RegexConcat (RegexStar (RegexUnion (Str2Reg "\"\"") (Str2Reg "##"))) (RegexConcat (RegexUnion (RegexPlus (Str2Reg "$")) (RegexPlus (Str2Reg "%%"))) (RegexConcat (RegexPlus (RegexStar (Str2Reg "&"))) (RegexConcat (RegexUnion (RegexStar (Str2Reg "'''")) (RegexStar (Str2Reg "("))) (RegexConcat (RegexUnion (RegexPlus (Str2Reg "))")) (RegexPlus (Str2Reg "*"))) (RegexConcat (RegexPlus (RegexStar (Str2Reg "+"))) (RegexConcat (RegexStar (RegexUnion (Str2Reg ",,") (Str2Reg "---"))) (RegexConcat (RegexStar (RegexUnion (Str2Reg "...") (Str2Reg "//"))) (RegexConcat (RegexUnion (RegexPlus (Str2Reg "::")) (RegexPlus (Str2Reg ";;;"))) (RegexConcat (RegexPlus (RegexStar (Str2Reg "<<<"))) (RegexConcat (RegexUnion (RegexStar (Str2Reg "=")) (RegexStar (Str2Reg ">"))) (RegexConcat (RegexStar (RegexUnion (Str2Reg "???") (Str2Reg "@"))) (RegexConcat (RegexStar (RegexUnion (Str2Reg "[[") (Str2Reg "\\\\\\"))) (RegexConcat (RegexPlus (RegexUnion (Str2Reg "]") (Str2Reg "^"))) (RegexConcat (RegexStar (RegexUnion (Str2Reg "__") (Str2Reg "```"))) (RegexConcat (RegexPlus (RegexStar (Str2Reg "{"))) (RegexConcat (RegexUnion (RegexStar (Str2Reg "|")) (RegexStar (Str2Reg "}}}"))) (RegexConcat (RegexUnion (RegexUnion (Str2Reg "~~") (Str2Reg "0")) (RegexUnion (Str2Reg "111") (Str2Reg "222"))) (RegexConcat (RegexStar (RegexUnion (Str2Reg "333") (Str2Reg "444"))) (RegexConcat (RegexPlus (RegexUnion (Str2Reg "55") (Str2Reg "666"))) (RegexConcat (RegexStar (RegexUnion (Str2Reg "777") (Str2Reg "88"))) (RegexConcat (RegexStar (RegexPlus (Str2Reg "99"))) (RegexConcat (RegexPlus (RegexPlus (Str2Reg "a"))) (RegexConcat (RegexUnion (RegexStar (Str2Reg "bbb")) (RegexStar (Str2Reg "c"))) (RegexConcat (RegexPlus (RegexPlus (Str2Reg "dd"))) (RegexConcat (RegexPlus (RegexUnion (Str2Reg "ee") (Str2Reg "f"))) (RegexConcat (RegexUnion (RegexStar (Str2Reg "gg")) (RegexStar (Str2Reg "hhh"))) (RegexConcat (RegexStar (RegexStar (Str2Reg "iii"))) (RegexConcat (RegexPlus (RegexPlus (Str2Reg "jjj"))) (RegexConcat (RegexUnion (RegexStar (Str2Reg "kk")) (RegexStar (Str2Reg "l"))) (RegexConcat (RegexPlus (RegexPlus (Str2Reg "mm"))) (RegexPlus (RegexUnion (Str2Reg "nn") (Str2Reg "o"))))))))))))))))))))))))))))))))))))))))))))))))))))))))))))))))))))))
(assert (not (RegexIn var0 (RegexConcat (RegexStar (RegexStar (Str2Reg "000"))) (RegexConcat (RegexUnion (RegexPlus (Str2Reg "111")) (RegexPlus (Str2Reg "22"))) (RegexConcat (RegexPlus (RegexUnion (Str2Reg "3") (Str2Reg "4"))) (RegexConcat (RegexUnion (RegexUnion (Str2Reg "5") (Str2Reg "6")) (RegexUnion (Str2Reg "77") (Str2Reg "888"))) (RegexConcat (RegexPlus (RegexUnion (Str2Reg "9") (Str2Reg "aa"))) (RegexConcat (RegexUnion (RegexStar (Str2Reg "bbb")) (RegexStar (Str2Reg "c"))) (RegexConcat (RegexUnion (RegexStar (Str2Reg "dd")) (RegexStar (Str2Reg "e"))) (RegexConcat (RegexStar (RegexPlus (Str2Reg "fff"))) (RegexConcat (RegexUnion (RegexStar (Str2Reg "ggg")) (RegexStar (Str2Reg "hh"))) (RegexConcat (RegexPlus (RegexStar (Str2Reg "iii"))) (RegexConcat (RegexUnion (RegexPlus (Str2Reg "jj")) (RegexPlus (Str2Reg "kk"))) (RegexConcat (RegexUnion (RegexStar (Str2Reg "l")) (RegexStar (Str2Reg "mm"))) (RegexConcat (RegexStar (RegexUnion (Str2Reg "n") (Str2Reg "ooo"))) (RegexConcat (RegexPlus (RegexUnion (Str2Reg "ppp") (Str2Reg "q"))) (RegexConcat (RegexUnion (RegexPlus (Str2Reg "rr")) (RegexPlus (Str2Reg "sss"))) (RegexConcat (RegexPlus (RegexStar (Str2Reg "t"))) (RegexConcat (RegexStar (RegexPlus (Str2Reg "uuu"))) (RegexConcat (RegexUnion (RegexStar (Str2Reg "vvv")) (RegexStar (Str2Reg "www"))) (RegexConcat (RegexStar (RegexPlus (Str2Reg "xxx"))) (RegexConcat (RegexUnion (RegexUnion (Str2Reg "yyy") (Str2Reg "zz")) (RegexUnion (Str2Reg "AA") (Str2Reg "BBB"))) (RegexConcat (RegexPlus (RegexStar (Str2Reg "CCC"))) (RegexConcat (RegexUnion (RegexPlus (Str2Reg "DDD")) (RegexPlus (Str2Reg "E"))) (RegexConcat (RegexUnion (RegexUnion (Str2Reg "F") (Str2Reg "GGG")) (RegexUnion (Str2Reg "H") (Str2Reg "I"))) (RegexConcat (RegexPlus (RegexUnion (Str2Reg "J") (Str2Reg "KKK"))) (RegexConcat (RegexPlus (RegexPlus (Str2Reg "LLL"))) (RegexConcat (RegexStar (RegexPlus (Str2Reg "MMM"))) (RegexConcat (RegexStar (RegexPlus (Str2Reg "NN"))) (RegexConcat (RegexUnion (RegexPlus (Str2Reg "OO")) (RegexPlus (Str2Reg "P"))) (RegexConcat (RegexStar (RegexStar (Str2Reg "QQ"))) (RegexConcat (RegexStar (RegexStar (Str2Reg "RRR"))) (RegexConcat (RegexPlus (RegexStar (Str2Reg "S"))) (RegexConcat (RegexUnion (RegexStar (Str2Reg "TTT")) (RegexStar (Str2Reg "U"))) (RegexConcat (RegexUnion (RegexStar (Str2Reg "V")) (RegexStar (Str2Reg "WWW"))) (RegexConcat (RegexPlus (RegexStar (Str2Reg "XX"))) (RegexConcat (RegexPlus (RegexPlus (Str2Reg "YY"))) (RegexConcat (RegexStar (RegexStar (Str2Reg "ZZZ"))) (RegexConcat (RegexStar (RegexUnion (Str2Reg "!!!") (Str2Reg "\"\"\""))) (RegexConcat (RegexStar (RegexPlus (Str2Reg "##"))) (RegexConcat (RegexPlus (RegexUnion (Str2Reg "$$$") (Str2Reg "%%%"))) (RegexConcat (RegexPlus (RegexPlus (Str2Reg "&&"))) (RegexConcat (RegexStar (RegexUnion (Str2Reg "'''") (Str2Reg "(("))) (RegexConcat (RegexPlus (RegexPlus (Str2Reg "))"))) (RegexConcat (RegexPlus (RegexPlus (Str2Reg "**"))) (RegexConcat (RegexPlus (RegexStar (Str2Reg "+"))) (RegexConcat (RegexPlus (RegexUnion (Str2Reg ",,") (Str2Reg "--"))) (RegexConcat (RegexPlus (RegexPlus (Str2Reg "."))) (RegexConcat (RegexUnion (RegexStar (Str2Reg "//")) (RegexStar (Str2Reg ":::"))) (RegexConcat (RegexStar (RegexStar (Str2Reg ";;"))) (RegexConcat (RegexStar (RegexStar (Str2Reg "<<<"))) (RegexConcat (RegexPlus (RegexPlus (Str2Reg "="))) (RegexConcat (RegexStar (RegexUnion (Str2Reg ">>") (Str2Reg "???"))) (RegexConcat (RegexUnion (RegexStar (Str2Reg "@@@")) (RegexStar (Str2Reg "[["))) (RegexConcat (RegexStar (RegexStar (Str2Reg "\\\\"))) (RegexConcat (RegexStar (RegexStar (Str2Reg "]"))) (RegexConcat (RegexUnion (RegexUnion (Str2Reg "^") (Str2Reg "_")) (RegexUnion (Str2Reg "``") (Str2Reg "{{"))) (RegexConcat (RegexStar (RegexUnion (Str2Reg "|") (Str2Reg "}}"))) (RegexConcat (RegexStar (RegexUnion (Str2Reg "~~") (Str2Reg "000"))) (RegexConcat (RegexPlus (RegexStar (Str2Reg "11"))) (RegexConcat (RegexPlus (RegexPlus (Str2Reg "2"))) (RegexConcat (RegexPlus (RegexStar (Str2Reg "33"))) (RegexConcat (RegexPlus (RegexStar (Str2Reg "4"))) (RegexConcat (RegexStar (RegexStar (Str2Reg "55"))) (RegexConcat (RegexPlus (RegexPlus (Str2Reg "666"))) (RegexConcat (RegexPlus (RegexUnion (Str2Reg "777") (Str2Reg "88"))) (RegexConcat (RegexPlus (RegexUnion (Str2Reg "99") (Str2Reg "a"))) (RegexUnion (RegexPlus (Str2Reg "bb")) (RegexPlus (Str2Reg "cc")))))))))))))))))))))))))))))))))))))))))))))))))))))))))))))))))))))))
(check-sat)